Route #1: 68 13 59 41 20 45 35 43 
Route #2: 26 46 5 17 32 10 63 25 
Route #3: 40 39 56 8 38 53 2 
Route #4: 28 57 11 42 14 34 18 9 33 49 31 
Route #5: 7 67 21 60 4 47 
Route #6: 23 30 6 3 15 44 51 
Route #7: 64 61 55 65 27 19 24 
Route #8: 66 58 12 22 29 37 52 
Route #9: 54 1 62 48 36 50 16 
cost 1508.55
execution_time 34.463
